proyfinal/src/viki/013/andrea/andrea-localstore/experimentInOfficeAgust.take6/worker_9/484efd3b-5088-4691-be0f-b2982a4d2063.als.cnf.out
Reading from standard input... Use '--help' for help.
============================[ Problem Statistics ]=============================
|                                                                             |
|  Number of variables:         87638                                         |
|  Number of clauses:          161767                                         |
|  Parse time:                   0.04 s                                       |
|                                                                             |
============================[ Search Statistics ]==============================
| Conflicts |          ORIGINAL         |          LEARNT          | Progress |
|           |    Vars  Clauses Literals |    Limit  Clauses Lit/Cl |          |
===============================================================================
|       100 |   62284   104847   261963 |    38443      100      9 | 28.930 % |
|       250 |   62279   104844   261957 |    42288      245     38 | 28.936 % |
|       475 |   62261   104758   261762 |    46517      469     63 | 28.957 % |
|       812 |   62261   104758   261762 |    51168      806     65 | 28.957 % |
|      1318 |   62261   104758   261762 |    56285     1312     59 | 28.957 % |
|      2077 |   62243   104646   261511 |    61914     1894     83 | 28.977 % |
|      3216 |   62199   104429   261028 |    68105     2801     80 | 29.028 % |
|      4924 |   47907    63645   160667 |    74916     4184     69 | 45.335 % |
|      7486 |   47505    62622   158182 |    82407     6723     61 | 45.794 % |
===============================================================================
restarts              : 39
conflicts             : 9249           (7424 /sec)
decisions             : 29770          (0.00 % random) (23896 /sec)
propagations          : 15000951       (12040862 /sec)
conflict literals     : 532324         (45.15 % deleted)
Memory used           : 30.10 MB
CPU time              : 1.24584 s

UNSATISFIABLE
